Gurobi Optimizer version 9.1.2 build v9.1.2rc0 (linux64)
Thread count: 36 physical cores, 72 logical processors, using up to 32 threads
Optimize a model with 12 rows, 57 columns and 590 nonzeros
Model fingerprint: 0xf32eec78
Model has 47 quadratic constraints
Coefficient statistics:
  Matrix range     [2e-05, 3e+00]
  QMatrix range    [1e+00, 1e+00]
  QLMatrix range   [1e+00, 1e+00]
  Objective range  [8e-03, 7e-01]
  Bounds range     [1e+00, 1e+00]
  RHS range        [1e+00, 1e+00]
Presolve removed 9 rows and 0 columns

Continuous model is non-convex -- solving as a MIP.

Presolve removed 9 rows and 0 columns
Presolve time: 0.00s
Presolved: 189 rows, 57 columns, 443 nonzeros
Presolved model has 47 bilinear constraint(s)
Variable types: 57 continuous, 0 integer (0 binary)

Root relaxation: objective -1.743721e+00, 44 iterations, 0.00 seconds

    Nodes    |    Current Node    |     Objective Bounds      |     Work
 Expl Unexpl |  Obj  Depth IntInf | Incumbent    BestBd   Gap | It/Node Time

     0     0   -1.74372    0   38          -   -1.74372      -     -    0s
H    0     0                       0.6147548   -1.74372   384%     -    0s
     0     0   -1.64739    0    1    0.61475   -1.64739   368%     -    0s
H    0     0                      -1.6450460   -1.64739  0.14%     -    0s
     0     0     cutoff    0        -1.64505   -1.64505  0.00%     -    0s

Cutting planes:
  RLT: 25
  BQP: 3

Explored 1 nodes (76 simplex iterations) in 0.01 seconds
Thread count was 32 (of 72 available processors)

Solution count 2: -1.64505 0.614755 
No other solutions better than -1.64505

Optimal solution found (tolerance 1.00e-04)
Best objective -1.645045978473e+00, best bound -1.645045978473e+00, gap 0.0000%

User-callback calls 78, time in user-callback 0.00 sec
Gurobi Optimizer version 9.1.2 build v9.1.2rc0 (linux64)
Thread count: 36 physical cores, 72 logical processors, using up to 32 threads
Optimize a model with 60 rows, 312 columns and 16100 nonzeros
Model fingerprint: 0xe3695390
Model has 262 quadratic constraints
Coefficient statistics:
  Matrix range     [4e-07, 7e+00]
  QMatrix range    [1e+00, 1e+00]
  QLMatrix range   [1e+00, 1e+00]
  Objective range  [5e-03, 1e+00]
  Bounds range     [1e+00, 1e+00]
  RHS range        [1e+00, 1e+00]
Presolve removed 16 rows and 0 columns

Continuous model is non-convex -- solving as a MIP.

Presolve removed 16 rows and 0 columns
Presolve time: 0.01s
Presolved: 1080 rows, 312 columns, 13136 nonzeros
Presolved model has 262 bilinear constraint(s)
Variable types: 312 continuous, 0 integer (0 binary)

Root relaxation: objective -2.754716e+01, 357 iterations, 0.02 seconds

    Nodes    |    Current Node    |     Objective Bounds      |     Work
 Expl Unexpl |  Obj  Depth IntInf | Incumbent    BestBd   Gap | It/Node Time

     0     0  -27.54716    0  147          -  -27.54716      -     -    0s
     0     0  -26.06725    0   80          -  -26.06725      -     -    0s
     0     0  -26.03220    0   80          -  -26.03220      -     -    0s
     0     0  -25.99029    0   80          -  -25.99029      -     -    0s
     0     0  -25.98835    0   80          -  -25.98835      -     -    0s
     0     0  -25.97088    0   80          -  -25.97088      -     -    0s
     0     0  -25.97041    0   80          -  -25.97041      -     -    0s
     0     0  -25.96861    0   80          -  -25.96861      -     -    0s
     0     0  -25.96804    0   80          -  -25.96804      -     -    0s
     0     0  -25.96489    0   75          -  -25.96489      -     -    0s
     0     0  -25.96479    0   75          -  -25.96479      -     -    0s
     0     0  -25.96432    0   75          -  -25.96432      -     -    0s
     0     0  -25.96431    0   75          -  -25.96431      -     -    0s
     0     0  -25.96365    0   75          -  -25.96365      -     -    0s
H    0     0                     -23.1926294  -25.96365  11.9%     -    0s
     0     2  -25.96365    0   75  -23.19263  -25.96365  11.9%     -    0s
* 1696  1570              58     -23.2020237  -24.96521  7.60%  49.8    1s
* 1888  1804              70     -23.2133029  -24.96521  7.55%  47.1    1s
* 2009  1882              80     -23.2167762  -24.96521  7.53%  45.8    1s
* 2109  1882              65     -23.8774915  -24.96521  4.56%  44.9    1s
* 2467  1870              60     -24.4087355  -24.91707  2.08%  44.0    2s
* 2469  1870              61     -24.4087363  -24.91707  2.08%  44.0    2s
* 2680  1697              63     -24.4290723  -24.85340  1.74%  43.6    2s
* 4146  1788              53     -24.4291505  -24.79332  1.49%  41.4    2s
* 4147  1788              53     -24.4291558  -24.79332  1.49%  41.4    2s
* 4838  1788              44     -24.4294100  -24.79332  1.49%  39.9    3s
* 5754  1791              42     -24.4314762  -24.70418  1.12%  38.1    3s
* 5755  1791              42     -24.4314785  -24.70418  1.12%  38.1    3s
* 6042  1786              56     -24.4316758  -24.70418  1.12%  37.4    3s
* 6139  1786              54     -24.4329350  -24.70418  1.11%  37.3    3s
* 6143  1786              56     -24.4329968  -24.70418  1.11%  37.3    3s
* 6144  1786              56     -24.4329976  -24.70418  1.11%  37.3    3s
* 6565  1727              49     -24.4331608  -24.60702  0.71%  36.6    3s
* 7576  1774              61     -24.4351136  -24.49645  0.25%  34.7    3s
* 7595  1774              61     -24.4351138  -24.49645  0.25%  34.7    3s
* 9266  1818              56     -24.4356160  -24.48338  0.20%  32.2    4s
* 9269  1818              58     -24.4356175  -24.48338  0.20%  32.1    4s
* 9270  1818              58     -24.4356175  -24.48338  0.20%  32.1    4s
*10496  1896              43     -24.4356640  -24.47669  0.17%  30.5    4s
*11240  1900              50     -24.4357212  -24.47669  0.17%  29.7    4s
*11241  1900              50     -24.4357695  -24.47669  0.17%  29.7    4s
 11524  1947  -24.44028   29   23  -24.43577  -24.47669  0.17%  29.4    5s
*11726  1876              54     -24.4371711  -24.47669  0.16%  29.2    5s
*11727  1876              54     -24.4371716  -24.47669  0.16%  29.2    5s
*12268  1852              54     -24.4375199  -24.47669  0.16%  28.6    5s
*12269  1852              54     -24.4377476  -24.47669  0.16%  28.6    5s
*12274  1852              54     -24.4378265  -24.47669  0.16%  28.6    5s
*12835  1867              56     -24.4378606  -24.46973  0.13%  28.1    5s
*12836  1866              56     -24.4378757  -24.46973  0.13%  28.1    5s
*13082  1834              53     -24.4386561  -24.46973  0.13%  27.9    5s
*16145  2049              49     -24.4387320  -24.46226  0.10%  26.0    5s
*24041  2200              47     -24.4387736  -24.45168  0.05%  22.5    7s
*24044  2192              47     -24.4387880  -24.45168  0.05%  22.5    7s
*25408  2280              57     -24.4390507  -24.44978  0.04%  21.9    7s
*25409  2280              57     -24.4390510  -24.44978  0.04%  21.9    7s
 36119  1705  -24.44574   24   18  -24.43905  -24.44574  0.03%  23.0   10s
*53408  1478              66     -24.4390803  -24.44574  0.03%  22.2   12s
*53410  1478              67     -24.4390817  -24.44574  0.03%  22.2   12s
*60226  1386              65     -24.4390845  -24.44354  0.02%  20.9   13s
*64158  1248              63     -24.4390855  -24.44193  0.01%  20.2   14s
*64160  1248              63     -24.4390866  -24.44193  0.01%  20.2   14s
*64161  1248              63     -24.4390884  -24.44193  0.01%  20.2   14s

Explored 65008 nodes (1303871 simplex iterations) in 14.38 seconds
Thread count was 32 (of 72 available processors)

Solution count 10: -24.4391 -24.4391 -24.4391 ... -24.4388

Optimal solution found (tolerance 1.00e-04)
Best objective -2.443908837322e+01, best bound -2.444145858142e+01, gap 0.0097%

User-callback calls 131201, time in user-callback 0.02 sec



objective value: -24.439088373219725
objective bound: -24.441458581420164
x_opt: [1.0, 0.9177170490434847, 0.0, 0.3557509582489236, 0.0, 0.0, 1.0, 0.0, 0.0, 0.0, 1.0, 0.0, 1.0, 1.0, 0.47048557670577457, 1.0, 0.0, 1.0, 0.0, 0.0, 0.0, 0.1581055359261821, 0.0, 0.5400929347085742, 0.0, 0.6246676679669004, 0.0, 1.0, 0.0, 0.0, 1.0, 1.0, 0.0, 0.6113412855543761, 1.0, 0.922777580968709, 0.0, 1.0, 0.0, 1.0, 1.0, 0.0, 0.9030557054420799, 0.06034978942679306, 6.248127827373994e-6, 0.024208310171707655, 0.3849992984060344, 0.4471497060149368, 0.09747988485216144, 0.0]
GUROBI solution time: 14.38158893585205




